n_res = 4;
rcap = [19, 19, 57, 32];
rtype = [1, 1, 2, 2];
n_tasks = 16;
modes = [ {1}, {2}, {3}, {4}, {5}, {6}, {7}, {8}, {9}, {10}, {11}, {12}, {13}, {14}, {15}, {16} ];
succ = [ {5, 7, 9}, {6, 14}, {4, 7, 8}, {10}, {6, 10, 11}, {13}, {15}, {9, 12, 13}, {14, 16}, {12, 15, 16}, {12, 13}, {14}, {15, 16}, {}, {}, {} ];
n_opt = 16;
dur = [2, 5, 9, 4, 8, 8, 2, 7, 7, 6, 2, 6, 9, 3, 4, 1];
rreq = [|  9,  3,  9,  6,  7,  4,  3,  8,  3,  7,  7,  1,  6,  7,  3,  2
        |  8,  3,  1,  4,  9,  6,  6,  4,  5,  5,  8,  9,  6,  4, 10,  7
        |  0,  0,  7,  9,  4,  8,  0,  0,  0,  8,  0,  4,  6,  6,  0,  5
        |  1,  9,  0,  0,  0,  0,  4,  6,  2,  0,  7,  0,  0,  0,  3,  0 |];
